#Initialize Simulation
#Setting up a periodic system with " " units
units real
boundary p p p
atom_style atomic

#Create the lattice on which initial atoms will be placed
lattice sc 4
region simbox block 0 10 0 10 0 10
create_box 1 simbox

#variables
#variable temp equal 300
#variable ep equal 28
#variable dt equal .8
#variable sigma equal 3.76
#variable cut equal "v_sigma*2^(1/6)"

#Create the atoms (on the lattice) 
create_atoms 1 box
mass * 39.95

#Define Interatomic Potential
pair_style lj/cut ${cut}
pair_coeff * * ${ep}  ${sigma}
pair_modify shift yes
 
#neighbor 2 bin
#neigh_modify delay 0 every 1

#Equilibration and Thermalization
timestep 1
velocity all create ${temp} 12345 dist gaussian
fix NVT all nvt temp 86 300 1000
dump equil all xyz 10 lj_equail.xyz
run 10000
undump equil
reset_timestep 0

#Switch to NVE if desired
unfix NVT
fix NVE all nve

compute thermotemp all temp
variable T equal c_thermotemp
compute pe all pe 
compute ke all ke
variable etot equal "c_pe + c_ke"

#dump 1 all atom 1 tmp.dump
#compute RDF all rdf 500

#fix energy all print 10 "${etot}" file energy.txt 
#fix Tprint all print 10 "$T" file ljtemp.txt
#fix raddist all ave/time 1 1 1 c_RDF file raddist.txt mode vector
#fix raddist all ave/time 1 1 1 c_RDF file raddist2.txt mode vector
dump coord all xyz 10 lj.xyz

run_style verlet

#thermo 0
#thermo_style custom temp etotal density
thermo_style custom density vol

timestep ${dt}
run 10000


#rerun tmp.dump first 1 every 1 last 5 dump x y box yes scaled yes
print "All done !"

