#Initialize Simulation
#Setting up a periodic system with " " units
units real
dimension 2
boundary p p p
atom_style atomic
atom_modify id yes 

variable temp equal 4

#Create the lattice on which initial atoms will be placed
lattice sq 3.5
region simbox block 0 10 0 10 -0.1 0.1
create_box 1 simbox

#Create the atoms (on the lattice) 
create_atoms 1 box
mass 1 1.0

#Define Interatomic Potential
pair_style lj/cut 3.3673
pair_coeff * * 1  3.0
pair_modify shift yes
 
neighbor 2 bin
neigh_modify delay 0 every 1

timestep 1

#Equilibration and Thermalization
velocity all create ${temp} 12345 dist gaussian
fix NVT all nvt temp ${temp} ${temp} 100
dump equil all xyz 10 LJ_equail.xyz
run 10000
undump equil

#Switch to NVE if desired
unfix NVT
fix NVE all nve

compute thermotemp all temp
variable T equal c_thermotemp
compute penergy all pe 
compute kenergy all ke
variable etot equal "c_pe + c_ke"

#fix energy all print 10 "${etot}" file energy.txt 
fix Tprint all print 10 "$T" file LJtemp.txt
dump 1 all xyz 10 LJ.xyz

run_style verlet

fix 2D all enforce2d

thermo 1000
thermo_style custom temp etotal
timestep 8
run 10000

print "All done !"

