#Initialize Simulation
#Setting up a periodic system with " " units
units real
dimension 2
boundary p p p
atom_style atomic
atom_modify id yes 

#Create the lattice on which initial atoms will be placed
lattice sq 3.0
region simbox block 0 100 0 100 -0.1 0.1
create_box 1 simbox

#Create the atoms (on the lattice) 
create_atoms 1 box
mass 1 1.0

#Define Interatomic Potential
pair_style lj/cut 3.0
pair_coeff * * 1 3.0 3.0
 
neighbor 2 bin
neigh_modify delay 0 every 1

#Equilibration and Thermalization
velocity all create 300 12345 dist gaussian
fix NVT all nvt temp 300 300 100
run 10000

#Switch to NVE if desired
unfix NVT
fix NVE all nve

compute Temp all temp
variable T equal c_Temp
compute penergy all pe 
variable p equal c_penergy
compute kenergy all ke
variable k equal c_kenergy

timestep 0.0769413
#timestep 1

#fix Eprint all print 10 "$p $k" file LJe.txt 
#fix Tprint all print 10 "$T" file LJtemp.txt
dump 1 all xyz 10 LJ.xyz

run_style verlet

fix 2D all enforce2d

thermo 0
thermo_style custom etotal

run 10000

print "All done !"

